(set-info :smt-lib-version 2.6)
(set-logic QF_NIA)
(set-info :source |
Generated by: Cristina Borralleras, Daniel Larraz, Albert Oliveras, Enric Rodriguez-Carbonell, Albert Rubio
Generated on: 2017-04-27
Generator: VeryMax
Application: Termination proving
Target solver: barcelogic
|)
(set-info :license "https://creativecommons.org/licenses/by/4.0/")
(set-info :category "industrial")
(set-info :status unknown)
(declare-fun Nl3arg11 () Int)
(declare-fun Nl3arg12 () Int)
(declare-fun lam0n1 () Int)
(declare-fun lam0n2 () Int)
(declare-fun Nl3CT1 () Int)
(declare-fun Nl3CT2 () Int)
(declare-fun lam0n0 () Int)
(declare-fun lam1n1 () Int)
(declare-fun lam1n2 () Int)
(declare-fun lam1n0 () Int)
(declare-fun lam2n1 () Int)
(declare-fun lam2n2 () Int)
(declare-fun lam2n0 () Int)
(declare-fun lam3n0 () Int)
(declare-fun lam3n1 () Int)
(declare-fun lam3n2 () Int)
(declare-fun lam4n0 () Int)
(declare-fun lam4n1 () Int)
(declare-fun lam4n2 () Int)
(declare-fun lam5n0 () Int)
(declare-fun lam5n1 () Int)
(declare-fun lam5n2 () Int)
(declare-fun lam6n0 () Int)
(declare-fun lam6n1 () Int)
(declare-fun lam6n2 () Int)
(declare-fun lam6n3 () Int)
(declare-fun lam6n4 () Int)
(declare-fun lam6n5 () Int)
(declare-fun lam6n6 () Int)
(declare-fun lam6n7 () Int)
(declare-fun lam7n0 () Int)
(declare-fun lam7n1 () Int)
(declare-fun lam7n2 () Int)
(declare-fun lam7n3 () Int)
(declare-fun lam7n4 () Int)
(declare-fun lam7n5 () Int)
(declare-fun lam7n6 () Int)
(declare-fun lam7n7 () Int)
(declare-fun lam8n0 () Int)
(declare-fun lam8n1 () Int)
(declare-fun lam8n2 () Int)
(declare-fun lam8n3 () Int)
(declare-fun lam8n4 () Int)
(declare-fun lam8n5 () Int)
(declare-fun lam8n6 () Int)
(declare-fun lam8n7 () Int)
(declare-fun lam9n0 () Int)
(declare-fun lam9n1 () Int)
(declare-fun lam9n2 () Int)
(declare-fun lam9n3 () Int)
(declare-fun lam9n4 () Int)
(declare-fun lam9n5 () Int)
(declare-fun lam9n6 () Int)
(declare-fun lam9n7 () Int)
(declare-fun lam10n0 () Int)
(declare-fun lam11n0 () Int)
(declare-fun undef28 () Int)
(declare-fun undef29 () Int)
(declare-fun undef3 () Int)
(declare-fun undef4 () Int)
(declare-fun undef6 () Int)
(declare-fun undef8 () Int)
(declare-fun undef5 () Int)
(declare-fun undef9 () Int)
(declare-fun undef12 () Int)
(declare-fun undef13 () Int)
(declare-fun undef14 () Int)
(declare-fun arg1 () Int)
(declare-fun lam15n1 () Int)
(declare-fun lam15n2 () Int)
(declare-fun RFN1_CT () Int)
(declare-fun RFN1_arg1 () Int)
(declare-fun lam15n0 () Int)
(declare-fun lam13n1 () Int)
(declare-fun lam13n2 () Int)
(declare-fun lam13n0 () Int)
(declare-fun lam14n1 () Int)
(declare-fun lam14n2 () Int)
(declare-fun lam14n0 () Int)
(declare-fun lam12n1 () Int)
(declare-fun lam12n2 () Int)
(declare-fun lam12n0 () Int)
(assert ( and ( <= ( - 1 ) Nl3arg11 ) ( <= Nl3arg11 1 ) ( <= ( - 1 ) Nl3arg12 ) ( <= Nl3arg12 1 ) ))
(assert ( or ( and ( >= lam0n1 0 ) ( >= lam0n2 0 ) ( > ( + ( * Nl3CT1 lam0n1 ) ( * Nl3CT2 lam0n2 ) ( - 1 ) ) 0 ) ( = ( + ( * 1 lam0n0 ) ( * Nl3arg11 lam0n1 ) ( * Nl3arg12 lam0n2 ) ) 0 ) ) ( and ( >= lam1n1 0 ) ( >= lam1n2 0 ) ( > ( + ( * Nl3CT1 lam1n1 ) ( * Nl3CT2 lam1n2 ) ( - 1 ( + Nl3CT1 ( * Nl3arg11 0 ) ) ) ) 0 ) ( = ( + ( * 1 lam1n0 ) ( * Nl3arg11 lam1n1 ) ( * Nl3arg12 lam1n2 ) ) 0 ) ) ))
(assert ( or ( and ( >= lam0n1 0 ) ( >= lam0n2 0 ) ( > ( + ( * Nl3CT1 lam0n1 ) ( * Nl3CT2 lam0n2 ) ( - 1 ) ) 0 ) ( = ( + ( * 1 lam0n0 ) ( * Nl3arg11 lam0n1 ) ( * Nl3arg12 lam0n2 ) ) 0 ) ) ( and ( >= lam2n1 0 ) ( >= lam2n2 0 ) ( > ( + ( * Nl3CT1 lam2n1 ) ( * Nl3CT2 lam2n2 ) ( - 1 ( + Nl3CT2 ( * Nl3arg12 0 ) ) ) ) 0 ) ( = ( + ( * 1 lam2n0 ) ( * Nl3arg11 lam2n1 ) ( * Nl3arg12 lam2n2 ) ) 0 ) ) ))
(assert ( or ( and ( >= lam3n0 0 ) ( >= lam3n1 0 ) ( >= lam3n2 0 ) ( > ( + ( * 1 lam3n0 ) ( * Nl3CT1 lam3n1 ) ( * Nl3CT2 lam3n2 ) ( - 1 ) ) 0 ) ( = ( + ( * ( - 1 ) lam3n0 ) ( * Nl3arg11 lam3n1 ) ( * Nl3arg12 lam3n2 ) ) 0 ) ) ( and ( >= lam4n0 0 ) ( >= lam4n1 0 ) ( >= lam4n2 0 ) ( > ( + ( * 1 lam4n0 ) ( * Nl3CT1 lam4n1 ) ( * Nl3CT2 lam4n2 ) ( - 1 ( + Nl3CT1 ( * Nl3arg11 ( - 1 ) ) ) ) ) 0 ) ( = ( + ( * ( - 1 ) lam4n0 ) ( * Nl3arg11 lam4n1 ) ( * Nl3arg12 lam4n2 ) ( - ( + 0 ( * Nl3arg11 1 ) ) ) ) 0 ) ) ))
(assert ( or ( and ( >= lam3n0 0 ) ( >= lam3n1 0 ) ( >= lam3n2 0 ) ( > ( + ( * 1 lam3n0 ) ( * Nl3CT1 lam3n1 ) ( * Nl3CT2 lam3n2 ) ( - 1 ) ) 0 ) ( = ( + ( * ( - 1 ) lam3n0 ) ( * Nl3arg11 lam3n1 ) ( * Nl3arg12 lam3n2 ) ) 0 ) ) ( and ( >= lam5n0 0 ) ( >= lam5n1 0 ) ( >= lam5n2 0 ) ( > ( + ( * 1 lam5n0 ) ( * Nl3CT1 lam5n1 ) ( * Nl3CT2 lam5n2 ) ( - 1 ( + Nl3CT2 ( * Nl3arg12 ( - 1 ) ) ) ) ) 0 ) ( = ( + ( * ( - 1 ) lam5n0 ) ( * Nl3arg11 lam5n1 ) ( * Nl3arg12 lam5n2 ) ( - ( + 0 ( * Nl3arg12 1 ) ) ) ) 0 ) ) ))
(assert ( or ( and ( <= ( + 1 ( * ( - 1 ) undef28 ) ) 0 ) ( <= ( + 2 ( * ( - 1 ) undef29 ) ) 0 ) ( <= ( * ( - 1 ) undef3 ) 0 ) ( <= ( * ( - 1 ) undef4 ) 0 ) ( <= ( * ( - 1 ) undef6 ) 0 ) ( <= ( * ( - 1 ) undef8 ) 0 ) ( = ( + ( - 1 ) undef4 ( * ( - 2 ) undef5 ) ) 0 ) ( = ( + ( - 1 ) undef8 ( * ( - 2 ) undef9 ) ) 0 ) ( <= ( + ( + Nl3CT1 ( * Nl3arg11 0 ) ) ( * ( + 0 ( * Nl3arg11 1 ) ) undef6 ) ) 0 ) ( <= ( + ( + Nl3CT2 ( * Nl3arg12 0 ) ) ( * ( + 0 ( * Nl3arg12 1 ) ) undef6 ) ) 0 ) ) ( and ( <= ( + 1 ( * ( - 1 ) undef28 ) ) 0 ) ( <= ( + 2 ( * ( - 1 ) undef29 ) ) 0 ) ( <= ( * ( - 1 ) undef6 ) 0 ) ( <= ( * ( - 1 ) undef8 ) 0 ) ( <= ( * ( - 1 ) undef12 ) 0 ) ( <= ( * ( - 1 ) undef13 ) 0 ) ( = ( + ( - 1 ) undef8 ( * ( - 2 ) undef9 ) ) 0 ) ( = ( + undef13 ( * ( - 2 ) undef14 ) ) 0 ) ( <= ( + ( + Nl3CT1 ( * Nl3arg11 0 ) ) ( * ( + 0 ( * Nl3arg11 1 ) ) undef6 ) ) 0 ) ( <= ( + ( + Nl3CT2 ( * Nl3arg12 0 ) ) ( * ( + 0 ( * Nl3arg12 1 ) ) undef6 ) ) 0 ) ) ( and ( = arg1 0 ) ( <= ( + Nl3CT1 ( * Nl3arg11 0 ) ) 0 ) ( <= ( + Nl3CT2 ( * Nl3arg12 0 ) ) 0 ) ) ))
(assert ( or ( and ( and ( >= lam15n1 0 ) ( >= lam15n2 0 ) ( > ( + ( * Nl3CT1 lam15n1 ) ( * Nl3CT2 lam15n2 ) ( - 1 ( - ( + RFN1_CT ( * RFN1_arg1 0 ) ) RFN1_CT ) ) ) 0 ) ( = ( + ( * 1 lam15n0 ) ( * Nl3arg11 lam15n1 ) ( * Nl3arg12 lam15n2 ) ( - ( - RFN1_arg1 ) ) ) 0 ) ) ( and ( and ( >= lam13n1 0 ) ( >= lam13n2 0 ) ( > ( + ( * Nl3CT1 lam13n1 ) ( * Nl3CT2 lam13n2 ) ( - 1 ( - RFN1_CT ) ) ) 0 ) ( = ( + ( * 1 lam13n0 ) ( * Nl3arg11 lam13n1 ) ( * Nl3arg12 lam13n2 ) ( - ( - RFN1_arg1 ) ) ) 0 ) ) ( and ( >= lam14n1 0 ) ( >= lam14n2 0 ) ( > ( + ( * Nl3CT1 lam14n1 ) ( * Nl3CT2 lam14n2 ) ( - 1 ( + ( - ( + RFN1_CT ( * RFN1_arg1 0 ) ) RFN1_CT ) 1 ) ) ) 0 ) ( = ( + ( * 1 lam14n0 ) ( * Nl3arg11 lam14n1 ) ( * Nl3arg12 lam14n2 ) ( - ( - RFN1_arg1 ) ) ) 0 ) ) ) ) ( and ( >= lam12n1 0 ) ( >= lam12n2 0 ) ( > ( + ( * Nl3CT1 lam12n1 ) ( * Nl3CT2 lam12n2 ) ( - 1 ) ) 0 ) ( = ( + ( * 1 lam12n0 ) ( * Nl3arg11 lam12n1 ) ( * Nl3arg12 lam12n2 ) ) 0 ) ) ))
(check-sat)
(exit)
